(set-logic QF_NIA)
(set-info :source |
     Constraint systems stating that a matrix interpretation is
     compatible with a rewriting system (weakly compatible with
     all rules, strictly compatible with at least one).

     Contributed by Johannes Waldmann at HTKW Leipzig.
   |)
(set-info :smt-lib-version 2.0)
(set-info :category "crafted")
(set-info :status sat)
(declare-fun n0 () Int)
(assert (>= n0 0))
(declare-fun n1 () Int)
(assert (>= n1 0))
(declare-fun n2 () Int)
(assert (>= n2 0))
(declare-fun n3 () Int)
(assert (>= n3 0))
(declare-fun n4 () Int)
(assert (>= n4 0))
(declare-fun n5 () Int)
(assert (>= n5 0))
(assert (>= n2 1))
(declare-fun n6 () Int)
(assert (>= n6 0))
(declare-fun n7 () Int)
(assert (>= n7 0))
(declare-fun n8 () Int)
(assert (>= n8 0))
(declare-fun n9 () Int)
(assert (>= n9 0))
(declare-fun n10 () Int)
(assert (>= n10 0))
(declare-fun n11 () Int)
(assert (>= n11 0))
(assert (>= n8 1))
(declare-fun n12 () Int)
(assert (>= n12 0))
(declare-fun n13 () Int)
(assert (>= n13 0))
(declare-fun n14 () Int)
(assert (>= n14 0))
(declare-fun n15 () Int)
(assert (>= n15 0))
(declare-fun n16 () Int)
(assert (>= n16 0))
(declare-fun n17 () Int)
(assert (>= n17 0))
(assert (>= n14 1))
(declare-fun n18 () Int)
(assert (>= n18 0))
(declare-fun n19 () Int)
(assert (>= n19 0))
(declare-fun n20 () Int)
(assert (>= n20 0))
(declare-fun n21 () Int)
(assert (>= n21 0))
(declare-fun n22 () Int)
(assert (>= n22 0))
(declare-fun n23 () Int)
(assert (>= n23 0))
(assert (>= n20 1))
(declare-fun n24 () Int)
(assert (>= n24 0))
(declare-fun n25 () Int)
(assert (>= n25 0))
(declare-fun n26 () Int)
(assert (>= n26 0))
(declare-fun n27 () Int)
(assert (>= n27 0))
(declare-fun n28 () Int)
(assert (>= n28 0))
(declare-fun n29 () Int)
(assert (>= n29 0))
(assert (>= n26 1))
(declare-fun n30 () Int)
(assert (>= n30 0))
(declare-fun n31 () Int)
(assert (>= n31 0))
(declare-fun n32 () Int)
(assert (>= n32 0))
(declare-fun n33 () Int)
(assert (>= n33 0))
(declare-fun n34 () Int)
(assert (>= n34 0))
(declare-fun n35 () Int)
(assert (>= n35 0))
(assert (>= n32 1))
(declare-fun n36 () Int)
(assert (>= n36 0))
(declare-fun n37 () Int)
(assert (>= n37 0))
(declare-fun n38 () Int)
(assert (>= n38 0))
(declare-fun n39 () Int)
(assert (>= n39 0))
(declare-fun n40 () Int)
(assert (>= n40 0))
(declare-fun n41 () Int)
(assert (>= n41 0))
(assert (>= n38 1))
(declare-fun n42 () Int)
(assert (>= n42 0))
(declare-fun n43 () Int)
(assert (>= n43 0))
(declare-fun n44 () Int)
(assert (>= n44 0))
(declare-fun n45 () Int)
(assert (>= n45 0))
(declare-fun n46 () Int)
(assert (>= n46 0))
(declare-fun n47 () Int)
(assert (>= n47 0))
(assert (>= n44 1))
(declare-fun n48 () Int)
(assert (= n48 (* n38 n0)))
(declare-fun n49 () Int)
(assert (= n49 (* n39 n1)))
(declare-fun n50 () Int)
(assert (= n50 (* n40 n0)))
(declare-fun n51 () Int)
(assert (= n51 (* n41 n1)))
(declare-fun n52 () Int)
(assert (= n52 (+ n48 n49)))
(declare-fun n53 () Int)
(assert (= n53 (+ n50 n51)))
(declare-fun n54 () Int)
(assert (= n54 (+ n36 n52)))
(declare-fun n55 () Int)
(assert (= n55 (+ n37 n53)))
(declare-fun n56 () Int)
(assert (= n56 (* n38 n2)))
(declare-fun n57 () Int)
(assert (= n57 (* n39 n4)))
(declare-fun n58 () Int)
(assert (= n58 (* n38 n3)))
(declare-fun n59 () Int)
(assert (= n59 (* n39 n5)))
(declare-fun n60 () Int)
(assert (= n60 (* n40 n2)))
(declare-fun n61 () Int)
(assert (= n61 (* n41 n4)))
(declare-fun n62 () Int)
(assert (= n62 (* n40 n3)))
(declare-fun n63 () Int)
(assert (= n63 (* n41 n5)))
(declare-fun n64 () Int)
(assert (= n64 (+ n56 n57)))
(declare-fun n65 () Int)
(assert (= n65 (+ n58 n59)))
(declare-fun n66 () Int)
(assert (= n66 (+ n60 n61)))
(declare-fun n67 () Int)
(assert (= n67 (+ n62 n63)))
(declare-fun n68 () Int)
(assert (= n68 (* n2 n12)))
(declare-fun n69 () Int)
(assert (= n69 (* n3 n13)))
(declare-fun n70 () Int)
(assert (= n70 (* n4 n12)))
(declare-fun n71 () Int)
(assert (= n71 (* n5 n13)))
(declare-fun n72 () Int)
(assert (= n72 (+ n68 n69)))
(declare-fun n73 () Int)
(assert (= n73 (+ n70 n71)))
(declare-fun n74 () Int)
(assert (= n74 (+ n0 n72)))
(declare-fun n75 () Int)
(assert (= n75 (+ n1 n73)))
(declare-fun n76 () Int)
(assert (= n76 (* n2 n14)))
(declare-fun n77 () Int)
(assert (= n77 (* n3 n16)))
(declare-fun n78 () Int)
(assert (= n78 (* n2 n15)))
(declare-fun n79 () Int)
(assert (= n79 (* n3 n17)))
(declare-fun n80 () Int)
(assert (= n80 (* n4 n14)))
(declare-fun n81 () Int)
(assert (= n81 (* n5 n16)))
(declare-fun n82 () Int)
(assert (= n82 (* n4 n15)))
(declare-fun n83 () Int)
(assert (= n83 (* n5 n17)))
(declare-fun n84 () Int)
(assert (= n84 (+ n76 n77)))
(declare-fun n85 () Int)
(assert (= n85 (+ n78 n79)))
(declare-fun n86 () Int)
(assert (= n86 (+ n80 n81)))
(declare-fun n87 () Int)
(assert (= n87 (+ n82 n83)))
(declare-fun n88 () Int)
(assert (= n88 (* n26 n0)))
(declare-fun n89 () Int)
(assert (= n89 (* n27 n1)))
(declare-fun n90 () Int)
(assert (= n90 (* n28 n0)))
(declare-fun n91 () Int)
(assert (= n91 (* n29 n1)))
(declare-fun n92 () Int)
(assert (= n92 (+ n88 n89)))
(declare-fun n93 () Int)
(assert (= n93 (+ n90 n91)))
(declare-fun n94 () Int)
(assert (= n94 (+ n24 n92)))
(declare-fun n95 () Int)
(assert (= n95 (+ n25 n93)))
(declare-fun n96 () Int)
(assert (= n96 (* n26 n2)))
(declare-fun n97 () Int)
(assert (= n97 (* n27 n4)))
(declare-fun n98 () Int)
(assert (= n98 (* n26 n3)))
(declare-fun n99 () Int)
(assert (= n99 (* n27 n5)))
(declare-fun n100 () Int)
(assert (= n100 (* n28 n2)))
(declare-fun n101 () Int)
(assert (= n101 (* n29 n4)))
(declare-fun n102 () Int)
(assert (= n102 (* n28 n3)))
(declare-fun n103 () Int)
(assert (= n103 (* n29 n5)))
(declare-fun n104 () Int)
(assert (= n104 (+ n96 n97)))
(declare-fun n105 () Int)
(assert (= n105 (+ n98 n99)))
(declare-fun n106 () Int)
(assert (= n106 (+ n100 n101)))
(declare-fun n107 () Int)
(assert (= n107 (+ n102 n103)))
(declare-fun n108 () Int)
(assert (= n108 (* n2 n24)))
(declare-fun n109 () Int)
(assert (= n109 (* n3 n25)))
(declare-fun n110 () Int)
(assert (= n110 (* n4 n24)))
(declare-fun n111 () Int)
(assert (= n111 (* n5 n25)))
(declare-fun n112 () Int)
(assert (= n112 (+ n108 n109)))
(declare-fun n113 () Int)
(assert (= n113 (+ n110 n111)))
(declare-fun n114 () Int)
(assert (= n114 (+ n0 n112)))
(declare-fun n115 () Int)
(assert (= n115 (+ n1 n113)))
(declare-fun n116 () Int)
(assert (= n116 (* n2 n26)))
(declare-fun n117 () Int)
(assert (= n117 (* n3 n28)))
(declare-fun n118 () Int)
(assert (= n118 (* n2 n27)))
(declare-fun n119 () Int)
(assert (= n119 (* n3 n29)))
(declare-fun n120 () Int)
(assert (= n120 (* n4 n26)))
(declare-fun n121 () Int)
(assert (= n121 (* n5 n28)))
(declare-fun n122 () Int)
(assert (= n122 (* n4 n27)))
(declare-fun n123 () Int)
(assert (= n123 (* n5 n29)))
(declare-fun n124 () Int)
(assert (= n124 (+ n116 n117)))
(declare-fun n125 () Int)
(assert (= n125 (+ n118 n119)))
(declare-fun n126 () Int)
(assert (= n126 (+ n120 n121)))
(declare-fun n127 () Int)
(assert (= n127 (+ n122 n123)))
(assert (>= n94 n114))
(assert (>= n95 n115))
(assert (>= n104 n124))
(assert (>= n105 n125))
(assert (>= n106 n126))
(assert (>= n107 n127))
(declare-fun n128 () Int)
(assert (= n128 (* n26 n18)))
(declare-fun n129 () Int)
(assert (= n129 (* n27 n19)))
(declare-fun n130 () Int)
(assert (= n130 (* n28 n18)))
(declare-fun n131 () Int)
(assert (= n131 (* n29 n19)))
(declare-fun n132 () Int)
(assert (= n132 (+ n128 n129)))
(declare-fun n133 () Int)
(assert (= n133 (+ n130 n131)))
(declare-fun n134 () Int)
(assert (= n134 (+ n24 n132)))
(declare-fun n135 () Int)
(assert (= n135 (+ n25 n133)))
(declare-fun n136 () Int)
(assert (= n136 (* n26 n20)))
(declare-fun n137 () Int)
(assert (= n137 (* n27 n22)))
(declare-fun n138 () Int)
(assert (= n138 (* n26 n21)))
(declare-fun n139 () Int)
(assert (= n139 (* n27 n23)))
(declare-fun n140 () Int)
(assert (= n140 (* n28 n20)))
(declare-fun n141 () Int)
(assert (= n141 (* n29 n22)))
(declare-fun n142 () Int)
(assert (= n142 (* n28 n21)))
(declare-fun n143 () Int)
(assert (= n143 (* n29 n23)))
(declare-fun n144 () Int)
(assert (= n144 (+ n136 n137)))
(declare-fun n145 () Int)
(assert (= n145 (+ n138 n139)))
(declare-fun n146 () Int)
(assert (= n146 (+ n140 n141)))
(declare-fun n147 () Int)
(assert (= n147 (+ n142 n143)))
(declare-fun n148 () Int)
(assert (= n148 (* n20 n24)))
(declare-fun n149 () Int)
(assert (= n149 (* n21 n25)))
(declare-fun n150 () Int)
(assert (= n150 (* n22 n24)))
(declare-fun n151 () Int)
(assert (= n151 (* n23 n25)))
(declare-fun n152 () Int)
(assert (= n152 (+ n148 n149)))
(declare-fun n153 () Int)
(assert (= n153 (+ n150 n151)))
(declare-fun n154 () Int)
(assert (= n154 (+ n18 n152)))
(declare-fun n155 () Int)
(assert (= n155 (+ n19 n153)))
(declare-fun n156 () Int)
(assert (= n156 (* n20 n26)))
(declare-fun n157 () Int)
(assert (= n157 (* n21 n28)))
(declare-fun n158 () Int)
(assert (= n158 (* n20 n27)))
(declare-fun n159 () Int)
(assert (= n159 (* n21 n29)))
(declare-fun n160 () Int)
(assert (= n160 (* n22 n26)))
(declare-fun n161 () Int)
(assert (= n161 (* n23 n28)))
(declare-fun n162 () Int)
(assert (= n162 (* n22 n27)))
(declare-fun n163 () Int)
(assert (= n163 (* n23 n29)))
(declare-fun n164 () Int)
(assert (= n164 (+ n156 n157)))
(declare-fun n165 () Int)
(assert (= n165 (+ n158 n159)))
(declare-fun n166 () Int)
(assert (= n166 (+ n160 n161)))
(declare-fun n167 () Int)
(assert (= n167 (+ n162 n163)))
(assert (>= n134 n154))
(assert (>= n135 n155))
(assert (>= n144 n164))
(assert (>= n145 n165))
(assert (>= n146 n166))
(assert (>= n147 n167))
(declare-fun n168 () Int)
(assert (= n168 (* n26 n12)))
(declare-fun n169 () Int)
(assert (= n169 (* n27 n13)))
(declare-fun n170 () Int)
(assert (= n170 (* n28 n12)))
(declare-fun n171 () Int)
(assert (= n171 (* n29 n13)))
(declare-fun n172 () Int)
(assert (= n172 (+ n168 n169)))
(declare-fun n173 () Int)
(assert (= n173 (+ n170 n171)))
(declare-fun n174 () Int)
(assert (= n174 (+ n24 n172)))
(declare-fun n175 () Int)
(assert (= n175 (+ n25 n173)))
(declare-fun n176 () Int)
(assert (= n176 (* n26 n14)))
(declare-fun n177 () Int)
(assert (= n177 (* n27 n16)))
(declare-fun n178 () Int)
(assert (= n178 (* n26 n15)))
(declare-fun n179 () Int)
(assert (= n179 (* n27 n17)))
(declare-fun n180 () Int)
(assert (= n180 (* n28 n14)))
(declare-fun n181 () Int)
(assert (= n181 (* n29 n16)))
(declare-fun n182 () Int)
(assert (= n182 (* n28 n15)))
(declare-fun n183 () Int)
(assert (= n183 (* n29 n17)))
(declare-fun n184 () Int)
(assert (= n184 (+ n176 n177)))
(declare-fun n185 () Int)
(assert (= n185 (+ n178 n179)))
(declare-fun n186 () Int)
(assert (= n186 (+ n180 n181)))
(declare-fun n187 () Int)
(assert (= n187 (+ n182 n183)))
(declare-fun n188 () Int)
(assert (= n188 (* n44 n74)))
(declare-fun n189 () Int)
(assert (= n189 (* n45 n75)))
(declare-fun n190 () Int)
(assert (= n190 (* n46 n74)))
(declare-fun n191 () Int)
(assert (= n191 (* n47 n75)))
(declare-fun n192 () Int)
(assert (= n192 (+ n188 n189)))
(declare-fun n193 () Int)
(assert (= n193 (+ n190 n191)))
(declare-fun n194 () Int)
(assert (= n194 (+ n42 n192)))
(declare-fun n195 () Int)
(assert (= n195 (+ n43 n193)))
(declare-fun n196 () Int)
(assert (= n196 (* n44 n84)))
(declare-fun n197 () Int)
(assert (= n197 (* n45 n86)))
(declare-fun n198 () Int)
(assert (= n198 (* n44 n85)))
(declare-fun n199 () Int)
(assert (= n199 (* n45 n87)))
(declare-fun n200 () Int)
(assert (= n200 (* n46 n84)))
(declare-fun n201 () Int)
(assert (= n201 (* n47 n86)))
(declare-fun n202 () Int)
(assert (= n202 (* n46 n85)))
(declare-fun n203 () Int)
(assert (= n203 (* n47 n87)))
(declare-fun n204 () Int)
(assert (= n204 (+ n196 n197)))
(declare-fun n205 () Int)
(assert (= n205 (+ n198 n199)))
(declare-fun n206 () Int)
(assert (= n206 (+ n200 n201)))
(declare-fun n207 () Int)
(assert (= n207 (+ n202 n203)))
(assert (>= n174 n194))
(assert (>= n175 n195))
(assert (>= n184 n204))
(assert (>= n185 n205))
(assert (>= n186 n206))
(assert (>= n187 n207))
(declare-fun n208 () Int)
(assert (= n208 (* n2 n42)))
(declare-fun n209 () Int)
(assert (= n209 (* n3 n43)))
(declare-fun n210 () Int)
(assert (= n210 (* n4 n42)))
(declare-fun n211 () Int)
(assert (= n211 (* n5 n43)))
(declare-fun n212 () Int)
(assert (= n212 (+ n208 n209)))
(declare-fun n213 () Int)
(assert (= n213 (+ n210 n211)))
(declare-fun n214 () Int)
(assert (= n214 (+ n0 n212)))
(declare-fun n215 () Int)
(assert (= n215 (+ n1 n213)))
(declare-fun n216 () Int)
(assert (= n216 (* n2 n44)))
(declare-fun n217 () Int)
(assert (= n217 (* n3 n46)))
(declare-fun n218 () Int)
(assert (= n218 (* n2 n45)))
(declare-fun n219 () Int)
(assert (= n219 (* n3 n47)))
(declare-fun n220 () Int)
(assert (= n220 (* n4 n44)))
(declare-fun n221 () Int)
(assert (= n221 (* n5 n46)))
(declare-fun n222 () Int)
(assert (= n222 (* n4 n45)))
(declare-fun n223 () Int)
(assert (= n223 (* n5 n47)))
(declare-fun n224 () Int)
(assert (= n224 (+ n216 n217)))
(declare-fun n225 () Int)
(assert (= n225 (+ n218 n219)))
(declare-fun n226 () Int)
(assert (= n226 (+ n220 n221)))
(declare-fun n227 () Int)
(assert (= n227 (+ n222 n223)))
(declare-fun n228 () Int)
(assert (= n228 (* n44 n0)))
(declare-fun n229 () Int)
(assert (= n229 (* n45 n1)))
(declare-fun n230 () Int)
(assert (= n230 (* n46 n0)))
(declare-fun n231 () Int)
(assert (= n231 (* n47 n1)))
(declare-fun n232 () Int)
(assert (= n232 (+ n228 n229)))
(declare-fun n233 () Int)
(assert (= n233 (+ n230 n231)))
(declare-fun n234 () Int)
(assert (= n234 (+ n42 n232)))
(declare-fun n235 () Int)
(assert (= n235 (+ n43 n233)))
(declare-fun n236 () Int)
(assert (= n236 (* n44 n2)))
(declare-fun n237 () Int)
(assert (= n237 (* n45 n4)))
(declare-fun n238 () Int)
(assert (= n238 (* n44 n3)))
(declare-fun n239 () Int)
(assert (= n239 (* n45 n5)))
(declare-fun n240 () Int)
(assert (= n240 (* n46 n2)))
(declare-fun n241 () Int)
(assert (= n241 (* n47 n4)))
(declare-fun n242 () Int)
(assert (= n242 (* n46 n3)))
(declare-fun n243 () Int)
(assert (= n243 (* n47 n5)))
(declare-fun n244 () Int)
(assert (= n244 (+ n236 n237)))
(declare-fun n245 () Int)
(assert (= n245 (+ n238 n239)))
(declare-fun n246 () Int)
(assert (= n246 (+ n240 n241)))
(declare-fun n247 () Int)
(assert (= n247 (+ n242 n243)))
(assert (>= n214 n234))
(assert (>= n215 n235))
(assert (>= n224 n244))
(assert (>= n225 n245))
(assert (>= n226 n246))
(assert (>= n227 n247))
(declare-fun n248 () Int)
(assert (= n248 (* n20 n42)))
(declare-fun n249 () Int)
(assert (= n249 (* n21 n43)))
(declare-fun n250 () Int)
(assert (= n250 (* n22 n42)))
(declare-fun n251 () Int)
(assert (= n251 (* n23 n43)))
(declare-fun n252 () Int)
(assert (= n252 (+ n248 n249)))
(declare-fun n253 () Int)
(assert (= n253 (+ n250 n251)))
(declare-fun n254 () Int)
(assert (= n254 (+ n18 n252)))
(declare-fun n255 () Int)
(assert (= n255 (+ n19 n253)))
(declare-fun n256 () Int)
(assert (= n256 (* n20 n44)))
(declare-fun n257 () Int)
(assert (= n257 (* n21 n46)))
(declare-fun n258 () Int)
(assert (= n258 (* n20 n45)))
(declare-fun n259 () Int)
(assert (= n259 (* n21 n47)))
(declare-fun n260 () Int)
(assert (= n260 (* n22 n44)))
(declare-fun n261 () Int)
(assert (= n261 (* n23 n46)))
(declare-fun n262 () Int)
(assert (= n262 (* n22 n45)))
(declare-fun n263 () Int)
(assert (= n263 (* n23 n47)))
(declare-fun n264 () Int)
(assert (= n264 (+ n256 n257)))
(declare-fun n265 () Int)
(assert (= n265 (+ n258 n259)))
(declare-fun n266 () Int)
(assert (= n266 (+ n260 n261)))
(declare-fun n267 () Int)
(assert (= n267 (+ n262 n263)))
(declare-fun n268 () Int)
(assert (= n268 (* n38 n18)))
(declare-fun n269 () Int)
(assert (= n269 (* n39 n19)))
(declare-fun n270 () Int)
(assert (= n270 (* n40 n18)))
(declare-fun n271 () Int)
(assert (= n271 (* n41 n19)))
(declare-fun n272 () Int)
(assert (= n272 (+ n268 n269)))
(declare-fun n273 () Int)
(assert (= n273 (+ n270 n271)))
(declare-fun n274 () Int)
(assert (= n274 (+ n36 n272)))
(declare-fun n275 () Int)
(assert (= n275 (+ n37 n273)))
(declare-fun n276 () Int)
(assert (= n276 (* n38 n20)))
(declare-fun n277 () Int)
(assert (= n277 (* n39 n22)))
(declare-fun n278 () Int)
(assert (= n278 (* n38 n21)))
(declare-fun n279 () Int)
(assert (= n279 (* n39 n23)))
(declare-fun n280 () Int)
(assert (= n280 (* n40 n20)))
(declare-fun n281 () Int)
(assert (= n281 (* n41 n22)))
(declare-fun n282 () Int)
(assert (= n282 (* n40 n21)))
(declare-fun n283 () Int)
(assert (= n283 (* n41 n23)))
(declare-fun n284 () Int)
(assert (= n284 (+ n276 n277)))
(declare-fun n285 () Int)
(assert (= n285 (+ n278 n279)))
(declare-fun n286 () Int)
(assert (= n286 (+ n280 n281)))
(declare-fun n287 () Int)
(assert (= n287 (+ n282 n283)))
(assert (>= n254 n274))
(assert (>= n255 n275))
(assert (>= n264 n284))
(assert (>= n265 n285))
(assert (>= n266 n286))
(assert (>= n267 n287))
(declare-fun n288 () Int)
(assert (= n288 (* n2 n36)))
(declare-fun n289 () Int)
(assert (= n289 (* n3 n37)))
(declare-fun n290 () Int)
(assert (= n290 (* n4 n36)))
(declare-fun n291 () Int)
(assert (= n291 (* n5 n37)))
(declare-fun n292 () Int)
(assert (= n292 (+ n288 n289)))
(declare-fun n293 () Int)
(assert (= n293 (+ n290 n291)))
(declare-fun n294 () Int)
(assert (= n294 (+ n0 n292)))
(declare-fun n295 () Int)
(assert (= n295 (+ n1 n293)))
(declare-fun n296 () Int)
(assert (= n296 (* n2 n38)))
(declare-fun n297 () Int)
(assert (= n297 (* n3 n40)))
(declare-fun n298 () Int)
(assert (= n298 (* n2 n39)))
(declare-fun n299 () Int)
(assert (= n299 (* n3 n41)))
(declare-fun n300 () Int)
(assert (= n300 (* n4 n38)))
(declare-fun n301 () Int)
(assert (= n301 (* n5 n40)))
(declare-fun n302 () Int)
(assert (= n302 (* n4 n39)))
(declare-fun n303 () Int)
(assert (= n303 (* n5 n41)))
(declare-fun n304 () Int)
(assert (= n304 (+ n296 n297)))
(declare-fun n305 () Int)
(assert (= n305 (+ n298 n299)))
(declare-fun n306 () Int)
(assert (= n306 (+ n300 n301)))
(declare-fun n307 () Int)
(assert (= n307 (+ n302 n303)))
(assert (>= n294 n54))
(assert (>= n295 n55))
(assert (>= n304 n64))
(assert (>= n305 n65))
(assert (>= n306 n66))
(assert (>= n307 n67))
(declare-fun n308 () Int)
(assert (= n308 (* n14 n54)))
(declare-fun n309 () Int)
(assert (= n309 (* n15 n55)))
(declare-fun n310 () Int)
(assert (= n310 (* n16 n54)))
(declare-fun n311 () Int)
(assert (= n311 (* n17 n55)))
(declare-fun n312 () Int)
(assert (= n312 (+ n308 n309)))
(declare-fun n313 () Int)
(assert (= n313 (+ n310 n311)))
(declare-fun n314 () Int)
(assert (= n314 (+ n12 n312)))
(declare-fun n315 () Int)
(assert (= n315 (+ n13 n313)))
(declare-fun n316 () Int)
(assert (= n316 (* n14 n64)))
(declare-fun n317 () Int)
(assert (= n317 (* n15 n66)))
(declare-fun n318 () Int)
(assert (= n318 (* n14 n65)))
(declare-fun n319 () Int)
(assert (= n319 (* n15 n67)))
(declare-fun n320 () Int)
(assert (= n320 (* n16 n64)))
(declare-fun n321 () Int)
(assert (= n321 (* n17 n66)))
(declare-fun n322 () Int)
(assert (= n322 (* n16 n65)))
(declare-fun n323 () Int)
(assert (= n323 (* n17 n67)))
(declare-fun n324 () Int)
(assert (= n324 (+ n316 n317)))
(declare-fun n325 () Int)
(assert (= n325 (+ n318 n319)))
(declare-fun n326 () Int)
(assert (= n326 (+ n320 n321)))
(declare-fun n327 () Int)
(assert (= n327 (+ n322 n323)))
(declare-fun n328 () Int)
(assert (= n328 (* n84 n24)))
(declare-fun n329 () Int)
(assert (= n329 (* n85 n25)))
(declare-fun n330 () Int)
(assert (= n330 (* n86 n24)))
(declare-fun n331 () Int)
(assert (= n331 (* n87 n25)))
(declare-fun n332 () Int)
(assert (= n332 (+ n328 n329)))
(declare-fun n333 () Int)
(assert (= n333 (+ n330 n331)))
(declare-fun n334 () Int)
(assert (= n334 (+ n74 n332)))
(declare-fun n335 () Int)
(assert (= n335 (+ n75 n333)))
(declare-fun n336 () Int)
(assert (= n336 (* n84 n26)))
(declare-fun n337 () Int)
(assert (= n337 (* n85 n28)))
(declare-fun n338 () Int)
(assert (= n338 (* n84 n27)))
(declare-fun n339 () Int)
(assert (= n339 (* n85 n29)))
(declare-fun n340 () Int)
(assert (= n340 (* n86 n26)))
(declare-fun n341 () Int)
(assert (= n341 (* n87 n28)))
(declare-fun n342 () Int)
(assert (= n342 (* n86 n27)))
(declare-fun n343 () Int)
(assert (= n343 (* n87 n29)))
(declare-fun n344 () Int)
(assert (= n344 (+ n336 n337)))
(declare-fun n345 () Int)
(assert (= n345 (+ n338 n339)))
(declare-fun n346 () Int)
(assert (= n346 (+ n340 n341)))
(declare-fun n347 () Int)
(assert (= n347 (+ n342 n343)))
(assert (>= n314 n334))
(assert (>= n315 n335))
(assert (>= n324 n344))
(assert (>= n325 n345))
(assert (>= n326 n346))
(assert (>= n327 n347))
(assert (or (> n94 n114) (> n134 n154) (> n174 n194) (> n214 n234) (> n254 n274) (> n294 n54) (> n314 n334)))
(check-sat)
(exit)
